# Solution for model RMP_EVSP
# Objective value = 4.1000244956469977e+11
q_0 0
q_1 0
q_2 0
q_3 0
q_4 0
q_5 0
q_6 0
q_7 0
q_8 0
q_9 0
q_10 0
q_11 0
q_12 0
q_13 0
q_14 0
q_15 0
q_16 0
q_17 0
q_18 0
q_19 0
q_20 0
q_21 0
q_22 0
q_23 0
q_24 0
q_25 0
q_26 0
q_27 0
q_28 0
q_29 0
q_30 0
q_31 0
q_32 0
q_33 0
q_34 1
q_35 0
q_36 0
q_37 0
q_38 0
q_39 0
q_40 0
q_41 0
q_42 0
q_43 0
q_44 0
q_45 0
q_46 0
q_47 0
q_48 0
q_49 0
q_50 0
q_51 0
q_52 0
q_53 0
q_54 0
q_55 0
q_56 0
q_57 0
q_58 0
q_59 0
q_60 0
q_61 0
q_62 0
q_63 0
q_64 0
q_65 0
q_66 0
q_67 0
q_68 0
q_69 0
q_70 0
q_71 0
q_72 0
q_73 0
q_74 0
q_75 0
q_76 0
q_77 0
q_78 0
q_79 0
q_80 0
q_81 0
q_82 0
q_83 0
q_84 0
q_85 0
q_86 0
q_87 0
q_88 0
q_89 0
q_90 0
q_91 0
q_92 0
q_93 0
q_94 0
q_95 0
q_96 0
q_97 0
q_98 0
q_99 0
q_100 0
q_101 0
q_102 0
q_103 0
q_104 0
q_105 0
q_106 0
q_107 0
q_108 0
q_109 0
q_110 0
q_111 0
q_112 0
q_113 0
q_114 0
q_115 0
q_116 0
q_117 0
q_118 0
q_119 0
q_120 0
q_121 0
q_122 0
q_123 0
q_124 0
q_125 0
q_126 0
q_127 0
q_128 0
q_129 0
q_130 0
q_131 0
q_132 0
q_133 0
q_134 0
q_135 0
q_136 0
q_137 0
q_138 0
q_139 0
q_140 0
q_141 0
q_142 0
q_143 0
q_144 0
q_145 0
q_146 0
q_147 0
q_148 0
q_149 0
q_150 0
q_151 0
q_152 0
q_153 0
q_154 0
q_155 0
q_156 0
q_157 0
q_158 0
q_159 0
q_160 0
q_161 0
q_162 0
q_163 0
q_164 1
q_165 0
q_166 0
q_167 0
q_168 0
q_169 0
q_170 0
q_171 0
q_172 0
q_173 0
q_174 0
q_175 0
q_176 0
q_177 0
q_178 0
q_179 0
q_180 0
q_181 1
q_182 0
q_183 0
q_184 0
q_185 0
q_186 0
q_187 0
q_188 0
q_189 0
q_190 0
q_191 0
q_192 0
q_193 0
q_194 0
q_195 0
q_196 0
q_197 0
q_198 0
q_199 0
q_200 0
q_201 0
q_202 0
q_203 0
q_204 0
q_205 1
q_206 1
q_207 1
q_208 0
q_209 0
q_210 1
q_211 1
q_212 1
q_213 1
q_214 1
q_215 0
q_216 0
q_217 0
q_218 0
q_219 0
q_220 1
q_221 1
q_222 1
q_223 1
q_224 1
q_225 0
q_226 0
q_227 0
q_228 0
q_229 0
q_230 0
q_231 1
q_232 0
q_233 1
q_234 1
q_235 0
q_236 1
q_237 0
q_238 0
q_239 1
q_240 0
q_241 1
q_242 1
q_243 0
q_244 0
q_245 0
q_246 1
q_247 0
q_248 0
q_249 0
q_250 1
q_251 1
q_252 0
q_253 1
q_254 1
q_255 1
q_256 1
q_257 1
q_258 0
q_259 1
q_260 1
q_261 0
q_262 1
q_263 1
q_264 1
q_265 1
q_266 1
q_267 1
q_268 0
q_269 1
q_270 1
q_271 1
q_272 0
q_273 1
q_274 0
q_275 0
q_276 0
q_277 0
q_278 0
q_279 0
q_280 0
q_281 1
q_282 1
q_283 0
q_284 0
q_285 0
q_286 0
q_287 0
q_288 1
q_289 0
q_290 1
q_291 1
q_292 1
q_293 0
q_294 0
q_295 0
q_296 1
q_297 0
q_298 1
q_299 1
q_300 0
q_301 1
q_302 0
q_303 1
q_304 1
q_305 0
q_306 1
q_307 0
q_308 1
q_309 1
q_310 0
q_311 0
q_312 1
q_313 1
q_314 0
q_315 0
q_316 1
q_317 1
q_318 0
q_319 1
q_320 0
q_321 1
q_322 0
q_323 1
q_324 0
q_325 0
q_326 0
q_327 0
q_328 0
q_329 1
q_330 1
q_331 1
q_332 0
q_333 1
q_334 0
q_335 0
q_336 0
q_337 1
q_338 0
q_339 1
q_340 0
q_341 0
q_342 1
q_343 1
q_344 0
q_345 0
q_346 1
q_347 1
q_348 1
q_349 1
q_350 0
q_351 1
q_352 1
q_353 1
q_354 0
q_355 1
q_356 1
q_357 1
q_358 0
q_359 0
q_360 1
q_361 1
q_362 1
q_363 1
q_364 1
q_365 1
q_366 1
q_367 0
q_368 1
q_369 1
q_370 1
q_371 1
q_372 1
q_373 1
q_374 1
q_375 0
q_376 0
q_377 1
q_378 1
q_379 1
q_380 1
q_381 0
q_382 0
q_383 0
q_384 0
q_385 0
q_386 1
q_387 1
q_388 0
q_389 1
q_390 1
q_391 1
q_392 1
q_393 1
q_394 0
q_395 0
q_396 0
q_397 0
q_398 0
q_399 1
q_400 0
q_401 0
q_402 0
q_403 1
q_404 1
q_405 1
q_406 1
q_407 1
q_408 1
q_409 0
q_410 1
q_411 0
q_412 1
q_413 1
q_414 1
q_415 1
q_416 0
q_417 0
q_418 0
q_419 0
q_420 0
q_421 0
q_422 1
q_423 1
q_424 0
q_425 1
q_426 1
q_427 1
q_428 0
q_429 1
q_430 1
q_431 0
q_432 0
q_433 0
q_434 1
q_435 0
q_436 0
q_437 1
q_438 0
q_439 0
q_440 0
q_441 0
q_442 1
q_443 1
q_444 1
q_445 0
q_446 0
q_447 1
q_448 0
q_449 0
q_450 1
q_451 0
q_452 1
q_453 1
q_454 0
q_455 0
q_456 1
q_457 1
q_458 0
q_459 0
q_460 0
q_461 0
q_462 0
q_463 0
q_464 0
q_465 1
q_466 0
q_467 1
q_468 0
q_469 0
q_470 0
q_471 0
q_472 0
q_473 0
q_474 0
q_475 0
q_476 0
q_477 0
q_478 0
q_479 0
q_480 1
q_481 1
q_482 1
q_483 0
q_484 0
q_485 0
q_486 0
q_487 1
q_488 1
q_489 1
q_490 1
q_491 1
q_492 1
q_493 1
q_494 0
q_495 0
q_496 0
q_497 1
q_498 1
q_499 1
q_500 1
q_501 0
q_502 1
q_503 1
q_504 1
q_505 1
q_506 1
q_507 0
q_508 1
q_509 1
q_510 0
q_511 1
q_512 0
q_513 1
q_514 0
q_515 0
q_516 1
q_517 0
q_518 1
q_519 0
q_520 1
q_521 0
q_522 1
q_523 1
q_524 1
q_525 1
q_526 1
q_527 1
q_528 1
q_529 1
q_530 1
q_531 1
q_532 0
q_533 1
q_534 0
q_535 1
q_536 1
q_537 0
q_538 1
q_539 1
q_540 1
q_541 0
q_542 0
q_543 0
q_544 1
q_545 1
q_546 1
q_547 1
q_548 1
q_549 1
q_550 0
q_551 1
q_552 1
q_553 0
q_554 0
q_555 0
q_556 0
q_557 0
q_558 0
q_559 0
q_560 0
q_561 0
q_562 0
q_563 0
q_564 1
q_565 1
q_566 0
q_567 0
q_568 0
q_569 1
q_570 1
q_571 0
q_572 1
q_573 0
q_574 1
q_575 1
q_576 1
q_577 1
q_578 1
q_579 1
q_580 0
q_581 1
q_582 0
q_583 0
q_584 0
q_585 1
q_586 0
q_587 1
q_588 1
q_589 1
q_590 0
q_591 1
q_592 1
q_593 1
q_594 1
q_595 1
q_596 0
q_597 0
q_598 1
q_599 0
q_600 1
q_601 1
q_602 1
q_603 1
q_604 0
q_605 0
q_606 0
q_607 1
q_608 0
q_609 1
q_610 0
q_611 0
q_612 0
q_613 1
q_614 1
q_615 0
q_616 1
q_617 1
q_618 0
q_619 1
q_620 1
q_621 0
q_622 1
q_623 1
q_624 1
q_625 1
q_626 0
q_627 1
q_628 0
q_629 1
q_630 0
q_631 1
q_632 1
q_633 1
q_634 1
q_635 0
q_636 0
q_637 1
q_638 1
q_639 0
q_640 1
q_641 1
q_642 1
q_643 1
q_644 1
q_645 1
q_646 1
q_647 0
q_648 1
q_649 1
q_650 1
q_651 0
q_652 1
q_653 0
q_654 0
q_655 0
q_656 1
q_657 1
q_658 1
q_659 1
q_660 1
q_661 1
q_662 1
q_663 0
q_664 0
q_665 1
q_666 0
q_667 1
q_668 0
q_669 0
q_670 1
q_671 0
q_672 0
q_673 1
q_674 1
q_675 1
q_676 0
q_677 1
q_678 1
q_679 1
q_680 1
q_681 0
q_682 0
q_683 1
q_684 0
q_685 1
q_686 1
q_687 0
q_688 1
q_689 0
q_690 1
q_691 0
q_692 1
q_693 0
q_694 1
q_695 1
q_696 0
q_697 1
q_698 0
q_699 0
q_700 0
q_701 0
q_702 1
q_703 0
q_704 1
q_705 1
q_706 0
q_707 0
q_708 0
q_709 0
q_710 1
q_711 1
q_712 0
q_713 0
q_714 0
q_715 0
q_716 1
q_717 1
q_718 1
q_719 0
q_720 1
q_721 1
q_722 0
q_723 0
q_724 0
q_725 1
q_726 1
q_727 0
q_728 0
q_729 1
q_730 1
q_731 0
q_732 0
q_733 1
q_734 0
q_735 1
q_736 1
q_737 1
q_738 0
q_739 1
q_740 1
q_741 0
q_742 0
q_743 1
q_744 0
q_745 1
q_746 1
q_747 1
q_748 1
q_749 0
q_750 0
q_751 1
q_752 1
q_753 0
q_754 0
q_755 1
q_756 0
q_757 0
q_758 0
q_759 0
q_760 1
q_761 1
q_762 1
q_763 1
q_764 1
q_765 1
q_766 1
q_767 0
q_768 1
q_769 1
q_770 0
q_771 1
q_772 1
q_773 0
q_774 1
q_775 1
q_776 0
q_777 1
q_778 1
q_779 1
q_780 1
q_781 0
q_782 0
q_783 0
q_784 0
q_785 0
q_786 0
q_787 0
q_788 0
q_789 0
q_790 0
q_791 0
q_792 1
q_793 0
q_794 1
q_795 0
q_796 1
q_797 1
q_798 0
q_799 1
q_800 1
q_801 1
q_802 0
q_803 1
q_804 1
q_805 1
q_806 1
q_807 0
q_808 0
q_809 0
q_810 0
q_811 1
q_812 0
q_813 0
q_814 1
q_815 1
q_816 1
q_817 1
q_818 0
q_819 0
q_820 1
q_821 1
q_822 1
q_823 1
q_824 1
q_825 1
q_826 1
q_827 0
q_828 0
q_829 0
q_830 0
q_831 0
q_832 1
q_833 0
q_834 1
q_835 1
q_836 1
q_837 0
q_838 0
q_839 1
q_840 0
q_841 1
q_842 0
q_843 0
q_844 0
q_845 0
q_846 1
q_847 1
q_848 1
q_849 0
q_850 1
q_851 0
q_852 0
q_853 0
q_854 0
q_855 1
q_856 0
q_857 0
q_858 0
q_859 0
q_860 0
q_861 1
q_862 0
q_863 1
q_864 1
q_865 1
q_866 1
q_867 0
q_868 0
q_869 1
q_870 0
q_871 0
q_872 0
q_873 0
q_874 0
q_875 0
q_876 1
q_877 0
q_878 0
q_879 0
q_880 1
q_881 1
q_882 0
q_883 1
q_884 0
q_885 0
q_886 1
q_887 1
q_888 1
q_889 1
q_890 0
q_891 1
q_892 1
q_893 1
q_894 0
q_895 1
q_896 1
q_897 0
q_898 0
q_899 1
q_900 1
q_901 1
q_902 1
q_903 1
q_904 1
q_905 1
q_906 1
q_907 0
q_908 1
q_909 1
q_910 0
q_911 0
q_912 1
q_913 0
q_914 1
q_915 0
q_916 1
q_917 0
q_918 0
q_919 0
q_920 0
q_921 1
q_922 1
q_923 0
q_924 0
q_925 0
q_926 0
q_927 0
q_928 0
q_929 0
q_930 1
q_931 1
q_932 0
q_933 0
q_934 1
q_935 0
q_936 1
q_937 1
q_938 0
q_939 1
q_940 1
q_941 1
q_942 1
q_943 1
q_944 1
q_945 1
q_946 1
q_947 1
q_948 1
q_949 1
q_950 1
q_951 0
q_952 0
q_953 0
q_954 0
q_955 0
q_956 0
q_957 1
q_958 1
q_959 0
q_960 0
q_961 1
q_962 1
q_963 0
q_964 0
q_965 0
q_966 0
q_967 1
q_968 0
q_969 0
q_970 0
q_971 0
q_972 0
q_973 0
q_974 0
q_975 0
q_976 0
q_977 1
q_978 0
q_979 0
q_980 0
q_981 0
q_982 0
q_983 1
q_984 0
q_985 0
q_986 0
a[0] 0
a[1] 0
a[2] 0
a[3] 0
a[4] 0
a[5] 0
a[6] 0
a[7] 0
a[8] 0
a[9] 1
a[10] 0
a[11] 0
a[12] 1
a[13] 1
a[14] 1
a[15] 1
a[16] 0
a[17] 0
a[18] 0
a[19] 0
a[20] 0
a[21] 1
a[22] 1
a[23] 0
a[24] 0
a[25] 0
a[26] 0
a[27] 0
a[28] 0
a[29] 0
a[30] 0
a[31] 1
a[32] 0
a[33] 0
a[34] 1
a[35] 0
a[36] 0
a[37] 0
a[38] 0
a[39] 0
a[40] 0
a[41] 0
a[42] 1
a[43] 0
a[44] 0
a[45] 0
a[46] 1
a[47] 0
a[48] 0
a[49] 0
a[50] 0
a[51] 0
a[52] 0
a[53] 0
a[54] 0
a[55] 0
a[56] 1
a[57] 0
a[58] 0
a[59] 0
a[60] 0
a[61] 0
a[62] 0
a[63] 0
a[64] 0
a[65] 1
a[66] 1
a[67] 1
a[68] 0
a[69] 1
a[70] 0
a[71] 0
a[72] 0
a[73] 0
a[74] 0
a[75] 1
a[76] 0
a[77] 0
a[78] 0
a[79] 0
a[80] 0
a[81] 0
a[82] 0
a[83] 0
a[84] 0
a[85] 0
a[86] 0
a[87] 1
a[88] 0
a[89] 0
a[90] 1
a[91] 0
a[92] 1
a[93] 0
a[94] 0
a[95] 0
a[96] 1
a[97] 1
a[98] 0
a[99] 0
a[100] 1
a[101] 1
a[102] 1
a[103] 0
a[104] 1
a[105] 0
a[106] 0
a[107] 0
a[108] 0
a[109] 1
a[110] 0
a[111] 1
a[112] 0
a[113] 0
a[114] 0
a[115] 1
a[116] 0
a[117] 0
a[118] 1
a[119] 0
a[120] 0
a[121] 0
a[122] 0
a[123] 0
a[124] 0
a[125] 1
a[126] 1
a[127] 1
a[128] 0
a[129] 0
a[130] 1
a[131] 1
a[132] 1
a[133] 0
a[134] 0
a[135] 1
a[136] 0
a[137] 0
a[138] 1
a[139] 1
a[140] 1
a[141] 0
a[142] 0
a[143] 0
a[144] 1
a[145] 1
a[146] 1
a[147] 0
a[148] 0
a[149] 0
a[150] 1
a[151] 1
a[152] 1
a[153] 1
a[154] 0
a[155] 1
a[156] 1
a[157] 0
a[158] 1
a[159] 1
a[160] 1
a[161] 0
a[162] 0
a[163] 0
a[164] 0
a[165] 0
a[166] 1
a[167] 0
a[168] 1
a[169] 0
a[170] 0
a[171] 1
a[172] 0
a[173] 0
a[174] 0
a[175] 0
a[176] 1
a[177] 1
a[178] 1
a[179] 1
a[180] 1
a[181] 1
a[182] 0
a[183] 0
a[184] 0
a[185] 0
a[186] 1
a[187] 0
a[188] 1
a[189] 0
a[190] 0
a[191] 0
a[192] 0
a[193] 0
a[194] 1
a[195] 1
a[196] 0
a[197] 1
a[198] 1
a[199] 1
a[200] 0
a[201] 1
a[202] 0
a[203] 0
a[204] 0
a[205] 1
a[206] 1
a[207] 0
a[208] 0
a[209] 0
a[210] 0
a[211] 0
a[212] 1
a[213] 0
a[214] 1
a[215] 1
a[216] 1
a[217] 0
a[218] 0
a[219] 0
a[220] 1
a[221] 0
a[222] 0
a[223] 1
a[224] 0
a[225] 1
a[226] 0
a[227] 1
a[228] 0
a[229] 0
a[230] 0
a[231] 1
a[232] 0
a[233] 1
a[234] 0
a[235] 0
a[236] 0
a[237] 1
a[238] 0
a[239] 0
a[240] 1
a[241] 1
a[242] 1
a[243] 0
a[244] 1
a[245] 1
a[246] 0
a[247] 0
a[248] 1
a[249] 0
a[250] 1
a[251] 1
a[252] 0
a[253] 0
a[254] 0
a[255] 0
a[256] 1
a[257] 0
a[258] 0
a[259] 0
a[260] 0
a[261] 1
a[262] 0
a[263] 0
a[264] 1
a[265] 1
a[266] 1
a[267] 0
a[268] 0
a[269] 0
a[270] 1
a[271] 1
a[272] 0
a[273] 1
a[274] 0
a[275] 1
a[276] 0
a[277] 0
a[278] 0
a[279] 1
a[280] 1
a[281] 0
a[282] 1
a[283] 0
a[284] 0
a[285] 0
a[286] 1
a[287] 0
a[288] 1
a[289] 0
a[290] 0
a[291] 1
a[292] 0
a[293] 0
a[294] 0
a[295] 0
a[296] 1
a[297] 0
a[298] 1
a[299] 0
a[300] 0
a[301] 0
a[302] 1
a[303] 0
a[304] 0
a[305] 0
a[306] 0
a[307] 0
a[308] 0
a[309] 1
a[310] 1
a[311] 0
a[312] 1
a[313] 1
a[314] 0
a[315] 0
a[316] 0
a[317] 1
a[318] 0
a[319] 0
a[320] 1
a[321] 0
a[322] 0
a[323] 1
a[324] 1
a[325] 1
a[326] 0
a[327] 0
a[328] 1
a[329] 0
a[330] 1
a[331] 0
a[332] 0
a[333] 0
a[334] 1
a[335] 0
a[336] 0
a[337] 0
a[338] 0
a[339] 0
a[340] 1
a[341] 1
a[342] 0
a[343] 0
a[344] 0
a[345] 1
a[346] 0
a[347] 0
a[348] 0
a[349] 1
a[350] 0
a[351] 0
a[352] 0
a[353] 0
a[354] 1
a[355] 1
a[356] 0
a[357] 0
a[358] 1
a[359] 1
a[360] 0
a[361] 1
a[362] 0
a[363] 0
a[364] 0
a[365] 0
a[366] 0
a[367] 0
a[368] 1
a[369] 1
a[370] 1
a[371] 1
a[372] 0
a[373] 0
a[374] 0
a[375] 1
a[376] 0
a[377] 1
a[378] 1
a[379] 1
a[380] 0
a[381] 0
a[382] 1
a[383] 1
a[384] 0
a[385] 0
a[386] 1
a[387] 0
a[388] 1
a[389] 1
a[390] 0
a[391] 0
a[392] 0
a[393] 0
a[394] 1
a[395] 0
a[396] 1
a[397] 0
a[398] 0
a[399] 1
a[400] 0
a[401] 1
a[402] 1
a[403] 1
a[404] 0
a[405] 0
a[406] 0
a[407] 1
a[408] 1
a[409] 1
a[410] 0
a[411] 1
a[412] 1
a[413] 1
a[414] 1
a[415] 0
a[416] 0
a[417] 1
a[418] 0
a[419] 0
a[420] 1
a[421] 0
a[422] 0
a[423] 0
a[424] 0
a[425] 0
a[426] 0
a[427] 1
a[428] 0
a[429] 0
a[430] 0
a[431] 1
a[432] 1
a[433] 1
a[434] 1
a[435] 1
a[436] 1
a[437] 0
a[438] 1
a[439] 1
a[440] 0
a[441] 0
a[442] 0
a[443] 0
a[444] 0
a[445] 0
a[446] 1
a[447] 1
a[448] 1
a[449] 1
a[450] 1
a[451] 1
a[452] 1
a[453] 0
a[454] 1
a[455] 1
a[456] 1
a[457] 1
a[458] 1
a[459] 1
a[460] 1
a[461] 0
a[462] 1
a[463] 1
a[464] 1
a[465] 1
a[466] 1
a[467] 1
a[468] 0
a[469] 1
a[470] 1
a[471] 1
a[472] 1
a[473] 1
a[474] 1
a[475] 1
a[476] 0
a[477] 0
a[478] 0
a[479] 0
a[480] 0
a[481] 0
a[482] 1
a[483] 1
a[484] 0
a[485] 0
a[486] 0
a[487] 0
a[488] 1
a[489] 0
a[490] 0
a[491] 1
a[492] 0
a[493] 1
a[494] 0
a[495] 0
a[496] 0
a[497] 0
a[498] 1
a[499] 0
a[500] 1
a[501] 1
a[502] 1
a[503] 0
a[504] 1
a[505] 1
a[506] 1
a[507] 1
a[508] 1
a[509] 0
a[510] 1
a[511] 1
a[512] 0
a[513] 0
a[514] 1
a[515] 0
a[516] 0
a[517] 1
a[518] 0
a[519] 0
a[520] 1
a[521] 0
a[522] 0
a[523] 0
a[524] 0
a[525] 0
a[526] 1
a[527] 1
a[528] 1
a[529] 1
a[530] 0
a[531] 1
a[532] 0
a[533] 0
a[534] 1
a[535] 0
a[536] 0
a[537] 1
a[538] 0
a[539] 1
a[540] 1
a[541] 1
a[542] 1
a[543] 1
a[544] 0
a[545] 1
a[546] 1
a[547] 1
a[548] 0
a[549] 1
a[550] 1
a[551] 1
a[552] 1
a[553] 1
a[554] 1
a[555] 1
a[556] 1
a[557] 0
a[558] 0
a[559] 1
a[560] 1
a[561] 1
a[562] 1
a[563] 0
a[564] 1
a[565] 0
a[566] 1
a[567] 1
a[568] 0
a[569] 1
a[570] 1
